NAME : problems/40-tsp/instance-22.tsp
COMMENT : No Comment
TYPE : TSP
DIMENSION: 40
EDGE_WEIGHT_TYPE : EUC_2D
NODE_COORD_SECTION
1 57 3338 
2 4073 6221 
3 1387 1387 
4 5060 7206 
5 10 6631 
6 2862 2201 
7 8045 7343 
8 350 617 
9 3841 3729 
10 2283 9878 
11 9032 542 
12 4933 2325 
13 2694 8389 
14 6254 2411 
15 914 4503 
16 5823 6695 
17 4504 8177 
18 8812 7738 
19 9040 5545 
20 7003 4108 
21 1425 6260 
22 430 6263 
23 9467 6493 
24 8017 325 
25 2739 7709 
26 2092 7532 
27 7264 3687 
28 691 7109 
29 322 7095 
30 8936 1406 
31 5887 1494 
32 5781 428 
33 5723 987 
34 7775 4679 
35 7734 3864 
36 8900 8657 
37 2388 3690 
38 4758 6674 
39 9936 4505 
40 1034 3586 
EOF
